3138.18 0
0 102 97 100 106 109 53 0
0 24 23 30 32 31 26 19 33 0
0 145 138 139 144 89 79 87 88 75 85 76 77 80 137 0
0 27 36 34 37 29 115 123 127 118 0
0 63 56 133 69 71 70 68 65 74 66 0
0 110 149 148 140 147 142 84 78 83 92 82 81 91 94 0
0 57 73 67 72 122 117 114 113 124 119 120 125 135 0
0 141 6 1 150 13 14 2 143 146 0
0 52 59 58 51 46 41 99 98 0
0 129 130 15 9 3 10 4 11 16 5 17 12 8 7 0
0 61 54 132 134 121 116 128 126 131 0
0 101 108 104 90 86 93 95 96 0
0 107 111 103 105 112 136 25 0
0 62 39 44 43 38 40 47 49 50 48 42 45 0
0 18 21 22 28 35 20 64 55 60 0